(set-info :origin "driver benchmark extracted from Microsoft SDV")
(set-logic HORN)
(declare-fun Proc27 (Int Int Int Bool Int) Bool)
(declare-fun Proc34 (Int Int Int Bool Int) Bool)
(declare-fun Proc24 (Int Int Int Bool Int) Bool)
(declare-fun Proc37 (Int Int Int Bool) Bool)
(declare-fun Proc33 (Int Int Int Bool Int) Bool)
(declare-fun Proc20 (Int Int Int Bool Int Int) Bool)
(declare-fun Proc41 (Int Int Int Bool) Bool)
(declare-fun Proc10 (Int Int Int Bool Int Int Int Int) Bool)
(declare-fun Proc38 (Int Int Int Bool Int Int) Bool)
(declare-fun Proc13 (Int Int Int Bool Int Int Int Int) Bool)
(declare-fun Proc2 (Int Int Int Bool Int Int Int) Bool)
(declare-fun Proc16 (Int Int Int Bool) Bool)
(declare-fun Proc23 (Int Int Int Bool Int) Bool)
(declare-fun Proc0 (Int Int Int Bool Int) Bool)
(declare-fun Proc22 (Int Int Int Bool Int) Bool)
(declare-fun Proc30 (Int Int Int Bool Int) Bool)
(declare-fun Proc7 (Int Int Int Bool Int Int) Bool)
(declare-fun Proc12 (Int Int Int Bool Int Int) Bool)
(declare-fun Proc8 (Int Int Int Bool Int Int Int Int) Bool)
(declare-fun Proc11 (Int Int Int Bool Int Int Int) Bool)
(declare-fun Proc39 (Int Int Int Bool Int) Bool)
(declare-fun Proc32 (Int Int Int Bool Int) Bool)
(declare-fun Proc25 (Int Int Int Bool Int) Bool)
(declare-fun Proc14 (Int Int Int Bool Int) Bool)
(declare-fun Proc4 (Int Int Int Bool Int Int Int) Bool)
(declare-fun Proc5 (Int Int Int Bool Int Int Int Int Int Int) Bool)
(declare-fun Proc9 (Int Int Int Bool Int) Bool)
(declare-fun Proc17 (Int Int Int Bool) Bool)
(declare-fun Proc18 (Int Int Int Bool Int Int) Bool)
(declare-fun Proc29 (Int Int Int Bool Int) Bool)
(declare-fun Proc36 (Int Int Int Bool Int) Bool)
(declare-fun Proc35 (Int Int Int Bool Int Int) Bool)
(declare-fun Proc31 (Int Int Int Bool Int) Bool)
(declare-fun Proc19 (Int Int Int Bool Int) Bool)
(declare-fun Proc26 (Int Int Int Bool Int) Bool)
(declare-fun Proc40 (Int Int Int Bool Int Int Int Int) Bool)
(declare-fun Proc6 (Int Int Int Bool Int Int Int) Bool)
(declare-fun Proc1
             (Int Int Int Bool Int Int Int Int Int Int Int Int Int Int Int Int)
             Bool)
(declare-fun Proc3 (Int Int Int Bool Int Int Int) Bool)
(declare-fun Proc21 (Int Int Int Bool Int Int Int Bool Int) Bool)
(declare-fun Proc15 (Int Int Int Bool Int Int Int Int) Bool)
(declare-fun Proc28 (Int Int Int Bool Int) Bool)
(declare-fun Proc42 (Int Int Int Bool Int Bool Int Int Int) Bool)
(assert (forall ((A Int)
         (B Int)
         (C Int)
         (D Int)
         (E Int)
         (F Int)
         (G Int)
         (H Int)
         (I Int)
         (J Int)
         (K Bool))
  (let ((a!1 (not (and (not (= F 0))
                       (= E (+ 24 F))
                       (Proc1 J I H K E 99 F 0 D 0 0 0 1 1 1 C)))))
  (let ((a!2 (not (or (not K)
                      (not (Proc0 J I H K 0))
                      (= G 0)
                      (= F 0)
                      a!1
                      (not (= B 0))))))
    (=> a!2 (Proc2 J I H K G A B))))))
(assert (forall ((A Int) (B Int) (C Int) (D Int) (E Int) (F Int) (G Int) (K Bool))
  (let ((a!1 (not (or (not K) (not (Proc3 G F E K D C B)) (not (= A 0))))))
    (=> a!1 (Proc4 G F E K D C A)))))
(assert (forall ((A Int)
         (B Int)
         (C Int)
         (D Int)
         (E Int)
         (F Int)
         (G Int)
         (H Int)
         (K Bool))
  (let ((a!1 (not (or (not K)
                      (= H 0)
                      (not (Proc5 G F E K D 100 C 1 1 1))
                      (not (Proc3 G F E K H D B))
                      (not (= A B))))))
    (=> a!1 (Proc6 G F E K H D A)))))
(assert (forall ((A Int)
         (B Int)
         (C Int)
         (D Int)
         (E Int)
         (F Int)
         (G Int)
         (H Int)
         (I Int)
         (J Int)
         (K Bool)
         (L Int))
  (let ((a!1 (and (= L J) (not (<= I (+ 4 L)))))
        (a!2 (and (not (<= I J)) (= H I) (not (<= G (+ 4 H))) (not (<= G I)))))
  (let ((a!3 (or (not K)
                 (not a!1)
                 (not a!2)
                 (not (Proc7 G F E K H L))
                 (not (and (= D 0) (= C G))))))
    (=> (not a!3) (Proc8 J F E K B A D C))))))
(assert (forall ((A Int)
         (B Int)
         (C Int)
         (D Int)
         (E Int)
         (F Int)
         (G Int)
         (H Int)
         (I Int)
         (K Bool))
  (let ((a!1 (and (not (<= G (+ 4 I))) (not (<= G H)))))
  (let ((a!2 (or (not K)
                 (not (= I H))
                 (not a!1)
                 (not (Proc9 G F E K I))
                 (not (and (= D 0) (= C G))))))
    (=> (not a!2) (Proc10 H F E K B A D C))))))
(assert (forall ((A Int) (B Int) (C Int) (D Int) (K Bool))
  (=> (not (or (not K) (= D 0))) (Proc9 C B A K D))))
(assert (forall ((A Int)
         (B Int)
         (C Int)
         (D Int)
         (E Int)
         (F Int)
         (G Int)
         (H Int)
         (I Int)
         (J Int)
         (K Bool)
         (L Int)
         (M Int)
         (N Int)
         (O Int)
         (P Int)
         (Q Int)
         (R Int)
         (S Int))
  (let ((a!1 (not (and (= Q (- 1073741670)) (= S Q))))
        (a!2 (not (and (= P (- 1073741811)) (= S P)))))
  (let ((a!3 (and (or (not (= S 0)) (not (= R S)))
                  (or a!1 (not (= R S)))
                  (or a!2 (not (= R S))))))
    (=> (not (or (not K) a!3)) (Proc1 O N M K L J I H G F E D C B A R))))))
(assert (forall ((A Int) (B Int) (C Int) (D Int) (E Int) (F Int) (K Bool))
  (let ((a!1 (not (or (not K) (= F 0) (not (= E 259))))))
    (=> a!1 (Proc11 D C B K A F E)))))
(assert (forall ((A Int)
         (B Int)
         (C Int)
         (D Int)
         (E Int)
         (F Int)
         (G Int)
         (H Int)
         (I Int)
         (J Int)
         (K Bool))
  (let ((a!1 (and (not (<= H (+ 1 J))) (not (<= H I)))))
  (let ((a!2 (or (not K)
                 (not (= J I))
                 (not a!1)
                 (not (Proc12 H G F K J E))
                 (not (and (= D H) (= C E))))))
    (=> (not a!2) (Proc13 I G F K B A D C))))))
(assert (forall ((A Int) (B Int) (C Int) (D Int) (E Int) (K Bool))
  (let ((a!1 (not (or (not K) (not (= E 1))))))
    (=> a!1 (Proc12 D C B K A E)))))
(assert (forall ((A Int) (B Int) (C Int) (D Int) (K Bool))
  (=> false (Proc14 D C B K A))))
(assert (forall ((A Int)
         (B Int)
         (C Int)
         (D Int)
         (E Int)
         (F Int)
         (G Int)
         (H Int)
         (I Int)
         (J Int)
         (K Bool)
         (L Int)
         (M Int)
         (N Int))
  (let ((a!1 (or (not (= G 1))
                 (not (and (= F G) (= E H)))
                 (not (and (= D E) (= C F)))))
        (a!2 (or (= G 1)
                 (not (and (= F G) (= E H)))
                 (not (and (= D E) (= C F)))))
        (a!3 (and (not (<= A (+ 1 B))) (not (<= A L)))))
  (let ((a!4 (or (not (= M 259))
                 (not (= B L))
                 (not a!3)
                 (not (Proc14 A N J K B))
                 (not (and (= F J) (= E A)))
                 (not (and (= D E) (= C F)))))
        (a!6 (or (not (= N 0))
                 (not (= B L))
                 (not a!3)
                 (not (Proc14 A N J K B))
                 (not (and (= F J) (= E A)))
                 (not (and (= D E) (= C F))))))
  (let ((a!5 (and (or (= M 259) (not (Proc13 L N J K I M H G)) (and a!1 a!2))
                  a!4)))
  (let ((a!7 (or (not K) (and (or (= N 0) a!5) a!6))))
    (=> (not a!7) (Proc15 L N J K I M D C))))))))
(assert (forall ((A Int) (B Int) (C Int) (K Bool)) (=> K (Proc16 C B A K))))
(assert (forall ((A Int) (B Int) (C Int) (K Bool)) (=> K (Proc17 C B A K))))
(assert (forall ((A Int) (B Int) (C Int) (D Int) (E Int) (K Bool))
  (let ((a!1 (or (not K) (not (and (= E 0) (= D 0))))))
    (=> (not a!1) (Proc18 C B A K E D)))))
(assert (forall ((A Int)
         (B Int)
         (C Int)
         (D Int)
         (E Int)
         (F Int)
         (G Int)
         (H Int)
         (I Int)
         (J Int)
         (K Bool)
         (L Int)
         (M Int)
         (N Int)
         (O Int)
         (P Int)
         (T Bool)
         (U Bool)
         (V Bool))
  (let ((a!1 (not (and (not (<= P 0)) (Proc19 P O N V M))))
        (a!2 (not (and (= E G) (= D L) (= C H) (= T U) (= B I)))))
  (let ((a!3 (or (= H 0) (not (and (= G F) (not U))) a!2))
        (a!4 (or (not (and (= H 0) (= K V))) (not (and (= G A) (= U K))) a!2)))
  (let ((a!5 (and (or (= H 1) (and a!3 a!4)) (or (not (= H 1)) (and a!3 a!4)))))
  (let ((a!6 (not (or (not V)
                      a!1
                      (not (Proc18 M O N V L J))
                      (not (Proc17 M L J V))
                      (not (Proc16 M L J V))
                      (not (Proc20 M L J V I H))
                      a!5))))
    (=> a!6 (Proc21 P O N V E D C T B))))))))
(assert (forall ((A Int) (B Int) (C Int) (D Int) (K Bool))
  (let ((a!1 (not (or (not K) (not (= D 1))))))
    (=> a!1 (Proc22 C B A K D)))))
(assert (forall ((A Int) (B Int) (C Int) (D Int) (K Bool))
  (let ((a!1 (not (or (not K) (not (= D 0))))))
    (=> a!1 (Proc23 C B A K D)))))
(assert (forall ((A Int) (B Int) (C Int) (D Int) (K Bool))
  (let ((a!1 (not (or (not K) (not (= D 1))))))
    (=> a!1 (Proc24 C B A K D)))))
(assert (forall ((A Int) (B Int) (C Int) (D Int) (K Bool))
  (let ((a!1 (not (or (not K) (not (= D 0))))))
    (=> a!1 (Proc25 C B A K D)))))
(assert (forall ((A Int) (B Int) (C Int) (D Int) (K Bool))
  (let ((a!1 (not (or (not K) (not (= D 1))))))
    (=> a!1 (Proc26 C B A K D)))))
(assert (forall ((A Int) (B Int) (C Int) (D Int) (K Bool))
  (let ((a!1 (not (or (not K) (not (= D 1))))))
    (=> a!1 (Proc27 C B A K D)))))
(assert (forall ((A Int) (B Int) (C Int) (D Int) (K Bool))
  (let ((a!1 (not (or (not K) (not (= D 1))))))
    (=> a!1 (Proc28 C B A K D)))))
(assert (forall ((A Int) (B Int) (C Int) (D Int) (K Bool))
  (let ((a!1 (not (or (not K) (not (= D 1))))))
    (=> a!1 (Proc29 C B A K D)))))
(assert (forall ((A Int) (B Int) (C Int) (D Int) (K Bool))
  (let ((a!1 (not (or (not K) (not (= D 1))))))
    (=> a!1 (Proc30 C B A K D)))))
(assert (forall ((A Int) (B Int) (C Int) (D Int) (K Bool))
  (let ((a!1 (not (or (not K) (not (= D 0))))))
    (=> a!1 (Proc31 C B A K D)))))
(assert (forall ((A Int) (B Int) (C Int) (D Int) (K Bool))
  (let ((a!1 (not (or (not K) (not (= D 0))))))
    (=> a!1 (Proc32 C B A K D)))))
(assert (forall ((A Int) (B Int) (C Int) (D Int) (E Int) (K Bool))
  (let ((a!1 (or (not K) (not (= E (- 1073741823))) (not (= D E)))))
    (=> (not a!1) (Proc33 C B A K D)))))
(assert (forall ((A Int) (B Int) (C Int) (D Int) (K Bool)) (=> K (Proc0 D C B K A))))
(assert (forall ((A Int) (B Int) (C Int) (D Int) (E Int) (F Int) (G Int) (K Bool))
  (let ((a!1 (not (or (not K) (not (Proc11 G F E K D C B)) (not (= A B))))))
    (=> a!1 (Proc3 G F E K D C A)))))
(assert (forall ((A Int) (B Int) (C Int) (D Int) (K Bool))
  (let ((a!1 (not (or (not K) (not (= D 1))))))
    (=> a!1 (Proc34 C B A K D)))))
(assert (forall ((A Int)
         (B Int)
         (C Int)
         (D Int)
         (E Int)
         (F Int)
         (G Int)
         (H Int)
         (I Int)
         (K Bool))
  (let ((a!1 (and (or (not (= I H)) (not (= G I)))
                  (or (not (= I F)) (not (= G I)))
                  (or (not (= I E)) (not (= G I))))))
    (=> (not (or (not K) a!1)) (Proc35 D C B K A G)))))
(assert (forall ((A Int)
         (B Int)
         (C Int)
         (D Int)
         (E Int)
         (F Int)
         (G Int)
         (H Int)
         (I Int)
         (J Int)
         (K Bool))
  (let ((a!1 (not (or (not K) (not (Proc35 J I H K G F)) (= F 0)))))
    (=> a!1 (Proc5 J I H K G E D C B A)))))
(assert (forall ((A Int) (B Int) (C Int) (D Int) (E Int) (K Bool))
  (=> (not (or (not K) (= E 0))) (Proc7 D C B K A E))))
(assert (forall ((A Int)
         (B Int)
         (C Int)
         (D Int)
         (E Int)
         (F Int)
         (G Int)
         (H Int)
         (I Int)
         (J Int)
         (K Bool)
         (L Int)
         (M Int)
         (N Int)
         (O Int)
         (P Int)
         (Q Int)
         (R Int)
         (S Int)
         (W Int)
         (X Int)
         (Y Int)
         (Z Int)
         (A1 Int)
         (B1 Int)
         (C1 Int)
         (D1 Int)
         (E1 Int)
         (F1 Int)
         (G1 Int)
         (H1 Int)
         (I1 Int))
  (let ((a!1 (or (= E1 0)
                 (not (Proc2 H1 G1 F1 K D1 I1 C1))
                 (not (and (= B1 C1) (= A1 H1)))
                 (not (Proc38 A1 G1 F1 K B1 I1))
                 (= I1 0)
                 (not (and (= Z B1) (= Y A1)))))
        (a!2 (or (= E1 0)
                 (not (Proc33 H1 G1 F1 K X))
                 (not (and (= B1 X) (= A1 H1)))
                 (not (Proc38 A1 G1 F1 K B1 I1))
                 (= I1 0)
                 (not (and (= Z B1) (= Y A1)))))
        (a!3 (or (= E1 0)
                 (not (Proc8 H1 G1 F1 K D1 I1 W S))
                 (not (and (= B1 W) (= A1 S)))
                 (not (Proc38 A1 G1 F1 K B1 I1))
                 (= I1 0)
                 (not (and (= Z B1) (= Y A1)))))
        (a!4 (or (= E1 0)
                 (not (Proc33 H1 G1 F1 K R))
                 (not (and (= B1 R) (= A1 H1)))
                 (not (Proc38 A1 G1 F1 K B1 I1))
                 (= I1 0)
                 (not (and (= Z B1) (= Y A1)))))
        (a!5 (or (= E1 0)
                 (not (Proc33 H1 G1 F1 K Q))
                 (not (and (= B1 Q) (= A1 H1)))
                 (not (Proc38 A1 G1 F1 K B1 I1))
                 (= I1 0)
                 (not (and (= Z B1) (= Y A1)))))
        (a!6 (or (= E1 0)
                 (not (Proc33 H1 G1 F1 K P))
                 (not (and (= B1 P) (= A1 H1)))
                 (not (Proc38 A1 G1 F1 K B1 I1))
                 (= I1 0)
                 (not (and (= Z B1) (= Y A1)))))
        (a!7 (or (= E1 0)
                 (not (Proc33 H1 G1 F1 K O))
                 (not (and (= B1 O) (= A1 H1)))
                 (not (Proc38 A1 G1 F1 K B1 I1))
                 (= I1 0)
                 (not (and (= Z B1) (= Y A1)))))
        (a!8 (or (not (Proc33 H1 G1 F1 K N))
                 (not (and (= B1 N) (= A1 H1)))
                 (not (Proc38 A1 G1 F1 K B1 I1))
                 (= I1 0)
                 (not (and (= Z B1) (= Y A1)))))
        (a!9 (or (= E1 0)
                 (not (Proc33 H1 G1 F1 K M))
                 (not (and (= B1 M) (= A1 H1)))
                 (not (Proc38 A1 G1 F1 K B1 I1))
                 (= I1 0)
                 (not (and (= Z B1) (= Y A1)))))
        (a!10 (or (= E1 0)
                  (not (Proc33 H1 G1 F1 K L))
                  (not (and (= B1 L) (= A1 H1)))
                  (not (Proc38 A1 G1 F1 K B1 I1))
                  (= I1 0)
                  (not (and (= Z B1) (= Y A1)))))
        (a!11 (or (= E1 0)
                  (not (Proc33 H1 G1 F1 K J))
                  (not (and (= B1 J) (= A1 H1)))
                  (not (Proc38 A1 G1 F1 K B1 I1))
                  (= I1 0)
                  (not (and (= Z B1) (= Y A1)))))
        (a!12 (or (not (Proc33 H1 G1 F1 K I))
                  (not (and (= B1 I) (= A1 H1)))
                  (not (Proc38 A1 G1 F1 K B1 I1))
                  (= I1 0)
                  (not (and (= Z B1) (= Y A1)))))
        (a!13 (or (= E1 0)
                  (not (Proc33 H1 G1 F1 K H))
                  (not (and (= B1 H) (= A1 H1)))
                  (not (Proc38 A1 G1 F1 K B1 I1))
                  (= I1 0)
                  (not (and (= Z B1) (= Y A1)))))
        (a!14 (or (= E1 0)
                  (not (Proc39 H1 G1 F1 K I1))
                  (not (Proc6 H1 G1 F1 K D1 I1 G))
                  (not (and (= B1 G) (= A1 H1)))
                  (not (Proc38 A1 G1 F1 K B1 I1))
                  (= I1 0)
                  (not (and (= Z B1) (= Y A1)))))
        (a!15 (or (= E1 0)
                  (not (Proc10 H1 G1 F1 K D1 I1 F E))
                  (not (and (= B1 F) (= A1 E)))
                  (not (Proc38 A1 G1 F1 K B1 I1))
                  (= I1 0)
                  (not (and (= Z B1) (= Y A1)))))
        (a!16 (or (not (Proc33 H1 G1 F1 K D))
                  (not (and (= B1 D) (= A1 H1)))
                  (not (Proc38 A1 G1 F1 K B1 I1))
                  (= I1 0)
                  (not (and (= Z B1) (= Y A1)))))
        (a!17 (or (= E1 0)
                  (not (Proc4 H1 G1 F1 K D1 I1 C))
                  (not (and (= B1 C) (= A1 H1)))
                  (not (Proc38 A1 G1 F1 K B1 I1))
                  (= I1 0)
                  (not (and (= Z B1) (= Y A1)))))
        (a!18 (or (not (= B 1))
                  (= B 0)
                  (= E1 0)
                  (not (Proc4 H1 G1 F1 K D1 I1 C))
                  (not (and (= B1 C) (= A1 H1)))
                  (not (Proc38 A1 G1 F1 K B1 I1))
                  (= I1 0)
                  (not (and (= Z B1) (= Y A1))))))
  (let ((a!19 (and (or (= E1 0) (and a!17 a!18))
                   (or (not (= A 1)) (= A 0) (= E1 0) (and a!17 a!18)))))
  (let ((a!20 (or (not K)
                  (= I1 0)
                  (not (Proc36 H1 G1 F1 K I1))
                  (= E1 0)
                  (not (Proc37 H1 G1 F1 K))
                  (and a!1
                       a!2
                       a!3
                       a!4
                       a!5
                       a!6
                       a!7
                       a!8
                       a!9
                       a!10
                       a!11
                       a!12
                       a!13
                       a!14
                       a!15
                       a!16
                       (or (= E1 0) a!19)))))
    (=> (not a!20) (Proc40 H1 G1 F1 K D1 I1 Z Y)))))))
(assert (forall ((A Int) (B Int) (C Int) (D Int) (E Int) (K Bool))
  (=> (not (or (not K) (= E 0) (= D 0))) (Proc39 C B A K E))))
(assert (forall ((A Int) (B Int) (C Int) (D Int) (K Bool))
  (=> (not (or (not K) (= D 0))) (Proc36 C B A K D))))
(assert (forall ((A Int)
         (B Int)
         (C Int)
         (D Int)
         (E Int)
         (F Int)
         (G Int)
         (H Int)
         (I Int)
         (J Int)
         (K Bool)
         (L Int)
         (M Int)
         (N Int)
         (O Int)
         (P Int)
         (Q Int)
         (R Int)
         (S Int)
         (W Int)
         (X Int)
         (Y Int)
         (Z Int)
         (A1 Int)
         (B1 Int)
         (C1 Int)
         (D1 Int)
         (E1 Int))
  (let ((a!1 (or (not (and (= M E1) (= L C1))) (not (and (= J M) (= I L)))))
        (a!2 (or (not (and (= M E) (= L C1))) (not (and (= J M) (= I L)))))
        (a!3 (and (not (<= C (+ 1 D))) (not (<= C E))))
        (a!4 (or (not (= A 1))
                 (not (and (= M B) (= L A)))
                 (not (and (= J M) (= I L)))))
        (a!5 (or (= A 1)
                 (not (and (= M B) (= L A)))
                 (not (and (= J M) (= I L)))))
        (a!7 (or (not (= B1 0))
                 (not (and (= M E1) (= L C1)))
                 (not (and (= J M) (= I L))))))
  (let ((a!6 (and a!2
                  (or (not (= D E))
                      (not a!3)
                      (not (Proc15 C D1 C1 K D F B A))
                      (and a!4 a!5)))))
  (let ((a!8 (and a!1
                  (or (= B1 0)
                      (not (Proc41 E1 D1 C1 K))
                      (not (Proc40 E1 D1 C1 K H G F E))
                      a!6)
                  a!7)))
  (let ((a!9 (not (or (not K)
                      (not (Proc24 E1 D1 C1 K B1))
                      (not (Proc31 E1 D1 C1 K A1))
                      (not (Proc25 E1 D1 C1 K Z))
                      (not (Proc30 E1 D1 C1 K Y))
                      (not (Proc23 E1 D1 C1 K X))
                      (not (Proc27 E1 D1 C1 K W))
                      (not (Proc34 E1 D1 C1 K S))
                      (not (Proc32 E1 D1 C1 K R))
                      (not (Proc22 E1 D1 C1 K Q))
                      (not (Proc28 E1 D1 C1 K P))
                      (not (Proc29 E1 D1 C1 K O))
                      (not (Proc26 E1 D1 C1 K N))
                      a!8))))
    (=> a!9 (Proc20 E1 D1 C1 K J I))))))))
(assert (forall ((A Int) (B Int) (C Int) (K Bool)) (=> K (Proc37 C B A K))))
(assert (forall ((A Int) (B Int) (C Int) (D Int) (E Int) (K Bool))
  (=> K (Proc38 E D C K B A))))
(assert (forall ((A Int) (B Int) (C Int) (K Bool)) (=> K (Proc41 C B A K))))
(assert (forall ((A Int)
         (B Int)
         (C Int)
         (D Int)
         (E Int)
         (F Int)
         (G Int)
         (H Int)
         (I Int)
         (J Int)
         (K Bool)
         (L Int)
         (M Int)
         (N Int)
         (O Int)
         (P Int)
         (Q Int)
         (R Int)
         (S Int)
         (W Int)
         (X Int)
         (Y Int)
         (Z Int)
         (A1 Int)
         (B1 Int)
         (C1 Int)
         (D1 Int)
         (E1 Int)
         (F1 Int)
         (G1 Int)
         (H1 Int)
         (I1 Int)
         (J1 Int)
         (K1 Int)
         (L1 Int)
         (M1 Int)
         (N1 Int)
         (O1 Int)
         (P1 Int)
         (Q1 Int)
         (R1 Int)
         (S1 Int)
         (T1 Int)
         (U1 Int)
         (V1 Int)
         (W1 Int)
         (X1 Int)
         (Y1 Int)
         (Z1 Int)
         (A2 Int)
         (B2 Int)
         (C2 Int)
         (D2 Int)
         (E2 Int)
         (F2 Int)
         (G2 Int)
         (H2 Int))
  (let ((a!1 (and (= H2 G2) (not (<= F2 (+ 240 H2)))))
        (a!2 (and (not (<= F2 G2))
                  (= E2 F2)
                  (not (<= D2 (+ 4 E2)))
                  (not (<= D2 F2))))
        (a!3 (and (= C2 D2)
                  (not (<= B2 (+ 332 C2)))
                  (not (<= B2 D2))
                  (= A2 B2)
                  (not (<= Z1 (+ 4 A2)))
                  (not (<= Z1 B2))
                  (= Y1 Z1)
                  (not (<= X1 (+ 536 Y1)))))
        (a!4 (and (not (<= X1 Z1))
                  (= W1 X1)
                  (not (<= V1 (+ 240 W1)))
                  (not (<= V1 X1))
                  (= U1 V1)
                  (not (<= T1 (+ 240 U1)))
                  (not (<= T1 V1))
                  (= S1 T1)
                  (not (<= R1 (+ 536 S1)))
                  (not (<= R1 T1))
                  (= Q1 R1)
                  (not (<= P1 (+ 240 Q1)))
                  (not (<= P1 R1))
                  (= O1 P1)
                  (not (<= N1 (+ 4 O1)))
                  (not (<= N1 P1))
                  (= M1 N1)
                  (not (<= L1 (+ 536 M1)))
                  (not (<= L1 N1))
                  (= K1 L1)
                  (not (<= J1 (+ 332 K1)))
                  (not (<= J1 L1))
                  (= I1 J1)
                  (not (<= H1 (+ 240 I1)))
                  (not (<= H1 J1))
                  (= G1 H1)
                  (not (<= F1 (+ 240 G1)))
                  (not (<= F1 H1))
                  (= E1 F1)
                  (not (<= D1 (+ 332 E1)))
                  (not (<= D1 F1))
                  (= C1 D1)
                  (not (<= B1 (+ 4 C1)))
                  (not (<= B1 D1))
                  (= A1 B1)
                  (not (<= Z (+ 536 A1)))
                  (not (<= Z B1))
                  (= Y Z)
                  (not (<= X (+ 240 Y)))
                  (not (<= X Z))
                  (= W X)
                  (not (<= S (+ 240 W)))
                  (not (<= S X))
                  (= R S)
                  (not (<= Q (+ 240 R)))
                  (not (<= Q S))
                  (= P Q)
                  (not (<= O (+ 240 P)))
                  (not (<= O Q))
                  (= N O)
                  (not (<= M (+ 240 N)))
                  (not (<= M O))
                  (= L M)
                  (not (<= J (+ 40 L)))
                  (not (<= J M))
                  (= I J)
                  (not (<= H (+ 332 I)))
                  (not (<= H J))
                  (= G H)
                  (not (<= F (+ 4 G)))
                  (not (<= F H))
                  (= E F)
                  (not (<= D (+ 40 E)))
                  (not (<= D F)))))
  (let ((a!5 (not (or (not K)
                      (not a!1)
                      (not a!2)
                      (not a!3)
                      (not a!4)
                      (not (= C D))))))
    (=> a!5 (Proc19 G2 B A K C))))))
(assert (forall ((A Int)
         (B Int)
         (C Int)
         (D Int)
         (E Int)
         (F Int)
         (G Int)
         (H Int)
         (I Int)
         (J Int)
         (K Bool)
         (L Int)
         (T Bool)
         (U Bool))
  (let ((a!1 (or (not U) (not (and (Proc21 L J I true H G F T E) (not T))))))
    (=> (not a!1) (Proc42 L J I U D K C B A)))))
(assert (let ((a!1 (exists ((V0 Int)
                    (V1 Int)
                    (V2 Int)
                    (V3 Bool)
                    (V4 Int)
                    (V5 Bool)
                    (V6 Int)
                    (V7 Int)
                    (V8 Int))
             (not (=> (and (Proc42 V0 V1 V2 V3 V4 V5 V6 V7 V8) (not false))
                      false)))))
  (not a!1)))

(check-sat)
